nBusiness = 60;
nMeetings = 236;
nTables = 24;
nTotalSlots = 10;
nMorningSlots = 10;

requested = [|1, 41,3, 
|1, 12,3, 
|1, 29,3, 
|1, 44,3, 
|1, 45,3, 
|1, 52,3, 
|1, 53,3, 
|1, 56,3, 
|60, 2,3, 
|12, 2,3, 
|35, 2,3, 
|3, 22,3, 
|4, 45,3, 
|4, 59,3, 
|57, 4,3, 
|4, 15,3, 
|4, 43,3, 
|17, 4,3, 
|31, 4,3, 
|14, 4,3, 
|6, 4,3, 
|9, 5,3, 
|5, 48,3, 
|9, 7,3, 
|9, 13,3, 
|9, 8,3, 
|9, 11,3, 
|10, 6,3, 
|10, 31,3, 
|10, 11,3, 
|10, 15,3, 
|14, 3,3, 
|14, 7,3, 
|16, 57,3, 
|16, 3,3, 
|17, 60,3, 
|57, 17,3, 
|14, 17,3, 
|17, 15,3, 
|18, 41,3, 
|20, 15,3, 
|20, 2,3, 
|20, 12,3, 
|20, 16,3, 
|20, 34,3, 
|20, 51,3, 
|20, 29,3, 
|21, 39,3, 
|21, 47,3, 
|21, 41,3, 
|25, 21,3, 
|43, 21,3, 
|21, 2,3, 
|21, 16,3, 
|21, 19,3, 
|23, 6,3, 
|23, 3,3, 
|23, 35,3, 
|23, 47,3, 
|23, 51,3, 
|41, 23,3, 
|23, 2,3, 
|24, 6,3, 
|24, 5,3, 
|24, 15,3, 
|24, 18,3, 
|24, 23,3, 
|24, 25,3, 
|24, 28,3, 
|24, 60,3, 
|46, 24,3, 
|41, 24,3, 
|25, 18,3, 
|25, 37,3, 
|41, 25,3, 
|28, 25,3, 
|60, 25,3, 
|26, 14,3, 
|26, 3,3, 
|26, 4,3, 
|26, 13,3, 
|26, 16,3, 
|1, 26,3, 
|52, 26,3, 
|10, 26,3, 
|35, 26,3, 
|26, 22,3, 
|20, 27,3, 
|44, 27,3, 
|14, 27,3, 
|40, 27,3, 
|10, 27,3, 
|57, 27,3, 
|31, 27,3, 
|6, 27,3, 
|28, 12,3, 
|14, 28,3, 
|28, 5,3, 
|28, 7,3, 
|28, 13,3, 
|29, 15,3, 
|29, 56,3, 
|57, 29,3, 
|29, 37,3, 
|2, 29,3, 
|17, 29,3, 
|20, 30,3, 
|40, 30,3, 
|57, 30,3, 
|31, 30,3, 
|6, 30,3, 
|25, 33,3, 
|10, 33,3, 
|9, 33,3, 
|15, 33,3, 
|33, 29,3, 
|33, 37,3, 
|33, 44,3, 
|49, 33,3, 
|35, 7,3, 
|35, 39,3, 
|35, 45,3, 
|16, 36,3, 
|57, 36,3, 
|36, 12,3, 
|36, 13,3, 
|36, 32,3, 
|2, 36,3, 
|31, 36,3, 
|6, 36,3, 
|37, 15,3, 
|37, 32,3, 
|28, 37,3, 
|14, 38,3, 
|12, 38,3, 
|35, 38,3, 
|38, 37,3, 
|38, 54,3, 
|1, 38,3, 
|23, 38,3, 
|20, 38,3, 
|21, 38,3, 
|40, 15,3, 
|40, 3,3, 
|40, 29,3, 
|40, 38,3, 
|25, 40,3, 
|10, 40,3, 
|57, 40,3, 
|41, 2,3, 
|42, 25,3, 
|42, 3,3, 
|42, 8,3, 
|42, 17,3, 
|42, 34,3, 
|42, 46,3, 
|10, 42,3, 
|18, 42,3, 
|28, 42,3, 
|31, 42,3, 
|43, 7,3, 
|43, 49,3, 
|16, 43,3, 
|18, 43,3, 
|37, 43,3, 
|55, 43,3, 
|43, 8,3, 
|44, 6,3, 
|44, 35,3, 
|44, 45,3, 
|44, 49,3, 
|44, 51,3, 
|47, 44,3, 
|46, 3,3, 
|46, 16,3, 
|46, 48,3, 
|46, 49,3, 
|52, 46,3, 
|46, 2,3, 
|31, 46,3, 
|47, 22,3, 
|47, 39,3, 
|12, 49,3, 
|9, 49,3, 
|49, 56,3, 
|28, 49,3, 
|50, 18,3, 
|50, 33,3, 
|50, 34,3, 
|50, 41,3, 
|40, 50,3, 
|46, 50,3, 
|35, 51,3, 
|52, 18,3, 
|52, 21,3, 
|52, 31,3, 
|52, 17,3, 
|52, 33,3, 
|52, 34,3, 
|52, 35,3, 
|3, 53,3, 
|54, 41,3, 
|54, 23,3, 
|43, 54,3, 
|16, 54,3, 
|37, 54,3, 
|54, 5,3, 
|54, 10,3, 
|54, 15,3, 
|54, 49,3, 
|55, 45,3, 
|55, 51,3, 
|55, 8,3, 
|12, 55,3, 
|56, 5,3, 
|58, 12,3, 
|58, 22,3, 
|58, 32,3, 
|58, 37,3, 
|58, 44,3, 
|59, 58,3, 
|41, 58,3, 
|18, 58,3, 
|31, 58,3, 
|6, 58,3, 
|59, 9,3, 
|59, 11,3, 
|59, 12,3, 
|59, 49,3, 
|16, 59,3, 
|31, 59,3, 
|6, 59,3, 
|60, 39,3, 
|60, 34,3, 
|60, 48,3, 
|60, 51,3, 
|];

meetingsxBusiness = [{1,2,3,4,5,6,7,8,9,84,140},
{1,10,11,12,43,54,63,106,129,151,180},
{1,13,33,36,58,80,145,153,175,202},
{1,14,15,16,17,18,19,20,21,22,81},
{1,23,24,65,99,208,216},
{1,22,29,57,64,96,112,131,169,226,233},
{1,25,34,100,121,162},
{1,27,154,168,214},
{1,23,25,26,27,28,115,185,227},
{1,29,30,31,32,86,93,114,149,158,209},
{1,28,31,228},
{1,3,11,44,97,126,136,184,215,217,229},
{1,26,82,101,127},
{1,21,33,34,39,79,91,98,135},
{1,17,32,40,42,66,102,116,132,144,210},
{1,35,36,45,55,83,124,164,176,206,231},
{1,19,37,38,39,40,107,155,198},
{1,41,67,74,159,165,188,195,224},
{1,56},
{1,42,43,44,45,46,47,48,89,108,142},
{1,49,50,51,52,53,54,55,56,143,196},
{1,13,88,182,218},
{1,57,58,59,60,61,62,63,68,141,204},
{1,64,65,66,67,68,69,70,71,72,73},
{1,52,69,74,75,76,77,78,113,148,152},
{1,79,80,81,82,83,84,85,86,87,88},
{1,89,90,91,92,93,94,95,96},
{1,70,77,97,98,99,100,101,134,160,187},
{1,4,48,102,103,104,105,106,107,117,146},
{1,108,109,110,111,112},
{1,20,30,95,111,130,161,181,197,225,232},
{1,128,133,219},
{1,113,114,115,116,117,118,119,120,189,199},
{1,46,156,190,200,235},
{1,12,59,87,121,122,123,137,170,194,201},
{1,124,125,126,127,128,129,130,131},
{1,75,105,118,132,133,134,138,166,207,220},
{1,135,136,137,138,139,140,141,142,143,147},
{1,49,122,183,234},
{1,92,109,144,145,146,147,148,149,150,192},
{1,2,41,51,62,73,76,151,191,203,223},
{1,152,153,154,155,156,157,158,159,160,161},
{1,18,53,162,163,164,165,166,167,168,205},
{1,5,90,119,169,170,171,172,173,174,221},
{1,6,14,123,171,212},
{1,72,157,175,176,177,178,179,180,181,193},
{1,50,60,174,182,183},
{1,24,177,236},
{1,120,163,172,178,184,185,186,187,211,230},
{1,188,189,190,191,192,193},
{1,47,61,173,194,213,237},
{1,7,85,179,195,196,197,198,199,200,201},
{1,8,202},
{1,139,203,204,205,206,207,208,209,210,211},
{1,167,212,213,214,215},
{1,9,103,186,216},
{1,16,35,38,94,104,110,125,150},
{1,217,218,219,220,221,222,223,224,225,226},
{1,15,222,227,228,229,230,231,232,233},
{1,10,37,71,78,234,235,236,237}];

nMeetingsBusiness = [10,10,9,10,6,10,5,4,8,10,3,10,4,8,10,10,8,8,1,10,10,4,10,10,10,10,8,10,10,5,10,3,10,5,10,8,10,10,4,10,10,10,10,10,5,10,5,3,10,6,6,10,2,10,5,4,8,10,9,8];

forbidden = [{},
{2},
{},
{},
{},
{},
{},
{},
{},
{},
{8},
{},
{},
{},
{},
{},
{},
{},
{},
{},
{},
{},
{},
{},
{},
{},
{},
{},
{},
{},
{2},
{},
{},
{},
{},
{3},
{},
{},
{},
{},
{},
{},
{},
{},
{},
{},
{},
{},
{},
{},
{},
{},
{},
{},
{},
{},
{},
{},
{},
{}];

fixed = [0,0,0,0,0,0,0,0,0,0,0,0,0,0,0,0,0,0,0,0,0,0,0,0,0,0,0,0,0,0,0,0,0,0,0,0,0,0,0,0,0,0,0,0,0,0,0,0,0,0,0,0,0,0,0,0,0,0,0,0,0,0,0,0,0,0,0,0,0,0,0,0,0,0,0,0,0,0,0,0,0,0,0,0,0,0,0,0,0,0,0,0,0,0,0,0,0,0,0,0,0,0,0,0,0,0,0,0,0,0,0,0,0,0,0,0,0,0,0,0,0,0,0,0,0,0,0,0,0,0,0,0,0,0,0,0,0,0,0,0,0,0,0,0,0,0,0,0,0,0,0,0,0,0,0,0,0,0,0,0,0,0,0,0,0,0,0,0,0,0,0,0,0,0,0,0,0,0,0,0,0,0,0,0,0,0,0,0,0,0,0,0,0,0,0,0,0,0,0,0,0,0,0,0,0,0,0,0,0,0,0,0,0,0,0,0,0,0,0,0,0,0,0,0,0,0,0,0,0,0,0,0,0,0,0,0];

precedences = [{},
{},
{},
{},
{},
{},
{},
{},
{},
{},
{},
{},
{},
{},
{},
{},
{},
{},
{},
{},
{},
{},
{},
{},
{},
{},
{},
{},
{},
{},
{},
{},
{},
{},
{},
{},
{},
{},
{},
{},
{},
{},
{},
{},
{},
{},
{},
{},
{},
{},
{},
{},
{},
{},
{},
{},
{},
{},
{},
{},
{},
{},
{},
{},
{},
{},
{},
{},
{},
{},
{},
{},
{},
{},
{},
{},
{},
{},
{},
{},
{},
{},
{},
{},
{},
{},
{},
{},
{},
{},
{},
{},
{},
{},
{},
{},
{},
{},
{},
{},
{},
{},
{},
{},
{},
{},
{},
{},
{},
{},
{},
{},
{},
{},
{},
{},
{},
{},
{},
{},
{},
{},
{},
{},
{},
{},
{},
{},
{},
{},
{},
{},
{},
{},
{},
{},
{},
{},
{},
{},
{},
{},
{},
{},
{},
{},
{},
{},
{},
{},
{},
{},
{},
{},
{},
{},
{},
{},
{},
{},
{},
{},
{},
{},
{},
{},
{},
{},
{},
{},
{},
{},
{},
{},
{},
{},
{},
{},
{},
{},
{},
{},
{},
{},
{},
{},
{},
{},
{},
{},
{},
{},
{},
{},
{},
{},
{},
{},
{},
{},
{},
{},
{},
{},
{},
{},
{},
{},
{},
{},
{},
{},
{},
{},
{},
{},
{},
{},
{},
{},
{},
{},
{},
{},
{},
{},
{},
{},
{},
{},
{},
{},
{},
{},
{},
{}];

